1965.59 0
0 38 48 36 33 40 41 67 68 0
0 23 99 26 19 0
0 24 75 74 73 14 22 0
0 59 54 32 58 49 62 76 78 77 52 98 94 91 96 0
0 11 93 89 95 12 0
0 64 60 29 44 46 37 56 79 80 69 71 72 70 0
0 21 16 15 3 4 7 81 85 83 57 51 0
0 27 13 1 2 9 82 87 84 86 100 6 8 5 10 88 97 0
0 61 55 45 42 34 30 28 39 31 47 43 63 0
0 17 90 92 18 20 0
0 25 53 35 66 50 65 0